
Gurobi 9.5.2 (mac64[arm]) logging started Fri Apr 28 12:58:53 2023

Set parameter LogFile to value "Java/output/pure_mip_2_machine/scenario_seed_2_nJob_20_machineCount_2/mip_increment_2/log.txt"
Gurobi Optimizer version 9.5.2 build v9.5.2rc0 (mac64[arm])
Thread count: 8 physical cores, 8 logical processors, using up to 8 threads
Optimize a model with 612 rows, 4988 columns and 35143 nonzeros
Model fingerprint: 0xd93f336a
Variable types: 0 continuous, 4988 integer (4988 binary)
Coefficient statistics:
  Matrix range     [1e+00, 1e+02]
  Objective range  [4e+00, 1e+06]
  Bounds range     [1e+00, 1e+00]
  RHS range        [1e+00, 1e+00]
Presolve removed 62 rows and 1195 columns
Presolve time: 0.04s
Presolved: 550 rows, 3793 columns, 26712 nonzeros
Variable types: 0 continuous, 3793 integer (3789 binary)

Root relaxation: objective 2.901037e+05, 3524 iterations, 0.10 seconds (0.17 work units)

    Nodes    |    Current Node    |     Objective Bounds      |     Work
 Expl Unexpl |  Obj  Depth IntInf | Incumbent    BestBd   Gap | It/Node Time

     0     0 290103.673    0  146          - 290103.673      -     -    0s
     0     0 326946.623    0  177          - 326946.623      -     -    0s
     0     0 326946.623    0  179          - 326946.623      -     -    0s
     0     0 327952.589    0  171          - 327952.589      -     -    0s
     0     0 327969.814    0  177          - 327969.814      -     -    0s
     0     0 328876.311    0  200          - 328876.311      -     -    0s
H    0     0                    507668.00000 328876.311  35.2%     -    0s
H    0     0                    505092.00000 328876.311  34.9%     -    0s
H    0     0                    380404.00000 329088.099  13.5%     -    0s
     0     0 329088.099    0  189 380404.000 329088.099  13.5%     -    0s
     0     0 329175.433    0  215 380404.000 329175.433  13.5%     -    0s
     0     0 329176.647    0  222 380404.000 329176.647  13.5%     -    0s
H    0     0                    343844.00000 329176.647  4.27%     -    0s
     0     0 330492.121    0  194 343844.000 330492.121  3.88%     -    0s
     0     0 330492.121    0   96 343844.000 330492.121  3.88%     -    0s
H    0     0                    343676.00000 330492.121  3.84%     -    0s
     0     0 330492.121    0  185 343676.000 330492.121  3.84%     -    1s
     0     0 331422.225    0  196 343676.000 331422.225  3.57%     -    1s
     0     0 331726.547    0  198 343676.000 331726.547  3.48%     -    1s
     0     0 331753.128    0  209 343676.000 331753.128  3.47%     -    1s
     0     0 331753.270    0  210 343676.000 331753.270  3.47%     -    1s
     0     0 332467.527    0  217 343676.000 332467.527  3.26%     -    1s
     0     0 332468.992    0  223 343676.000 332468.992  3.26%     -    1s
     0     0 333410.534    0  206 343676.000 333410.534  2.99%     -    1s
     0     0 333823.656    0  204 343676.000 333823.656  2.87%     -    1s
     0     0 334081.133    0  222 343676.000 334081.133  2.79%     -    1s
     0     0 334103.357    0  225 343676.000 334103.357  2.79%     -    1s
     0     0 334103.357    0  225 343676.000 334103.357  2.79%     -    1s
     0     0 334859.719    0  200 343676.000 334859.719  2.57%     -    1s
     0     0 335022.232    0  213 343676.000 335022.232  2.52%     -    1s
     0     0 335151.301    0  214 343676.000 335151.301  2.48%     -    1s
     0     0 335153.919    0  211 343676.000 335153.919  2.48%     -    1s
     0     0 335391.584    0  210 343676.000 335391.584  2.41%     -    1s
H    0     0                    341912.00000 335391.584  1.91%     -    1s
     0     0 335717.119    0  201 341912.000 335717.119  1.81%     -    1s
     0     0 335725.511    0  205 341912.000 335725.511  1.81%     -    1s
     0     0 335725.832    0  210 341912.000 335725.832  1.81%     -    1s
     0     0 336023.264    0  218 341912.000 336023.264  1.72%     -    1s
     0     0 336194.592    0  217 341912.000 336194.592  1.67%     -    1s
     0     0 336364.306    0  234 341912.000 336364.306  1.62%     -    1s
     0     0 336369.484    0  232 341912.000 336369.484  1.62%     -    1s
H    0     0                    341312.00000 336369.484  1.45%     -    1s
*    0     0               0    336436.00000 336436.000  0.00%     -    1s

Cutting planes:
  Gomory: 3
  Cover: 3
  Clique: 35
  MIR: 56
  StrongCG: 21
  GUB cover: 74
  Zero half: 11
  RLT: 2

Explored 1 nodes (16474 simplex iterations) in 1.44 seconds (2.05 work units)
Thread count was 8 (of 8 available processors)

Solution count 8: 336436 341312 341912 ... 507668

Optimal solution found (tolerance 1.00e-04)
Best objective 3.364360000000e+05, best bound 3.364360000000e+05, gap 0.0000%
